benchmark/results/graph__10-1000-0.10-04_16/graph__10-1000-0.10-04_16_Quinton_Benders_sub.lp
\ This file has been generated by DOcplex
\ ENCODING=ISO-8859-1
\Problem name: Quinton Benders_dual_sub

Minimize
 obj: 0.001992031873 pi_nr_a0 + 0.001150747986 pi_nr_a1
      + 0.001177856302 pi_nr_a2 + 0.001203369434 pi_nr_a3
      + 0.001821493625 pi_nr_a4 + 0.001808318264 pi_nr_a5
      + 0.001210653753 pi_nr_a6 + 0.001709401709 pi_nr_a7
      + 0.003125000000 pi_nr_a8 + 0.002487562189 pi_nr_a9 + pi_p_a0_a1
      + pi_p_a6_a4 + pi_p_a2_a7 + pi_p_a2_a0 + pi_p_a5_a9 + pi_p_a5_a5
      + pi_p_a8_a8 + 3808 pi_d_a0_a1_proc_2 + 2539 pi_d_a0_a1_proc_0
      + 3808 pi_d_a0_a1_proc_1 + 1269 pi_d_a1_a0_proc_2 + 1269 pi_d_a1_a0_proc_1
      + 2538 pi_d_a0_a2_proc_2 + 2538 pi_d_a0_a2_proc_0 + 2538 pi_d_a0_a2_proc_1
      + 2539 pi_d_a2_a0_proc_2 + pi_d_a2_a0_proc_3 + 2539 pi_d_a2_a0_proc_0
      + 2539 pi_d_a2_a0_proc_1 + 2539 pi_d_a0_a3_proc_2 + 3808 pi_d_a0_a3_proc_0
      + 3808 pi_d_a0_a3_proc_1 + 1269 pi_d_a3_a0_proc_0 + 1269 pi_d_a3_a0_proc_1
      + 3808 pi_d_a0_a4_proc_2 + 2539 pi_d_a0_a4_proc_3 + 3808 pi_d_a0_a4_proc_0
      + 2539 pi_d_a0_a4_proc_1 + 1269 pi_d_a4_a0_proc_2 + 1269 pi_d_a4_a0_proc_0
      + 3807 pi_d_a0_a5_proc_2 + 2538 pi_d_a0_a5_proc_3 + 2538 pi_d_a0_a5_proc_1
      + 1270 pi_d_a5_a0_proc_2 + pi_d_a5_a0_proc_3 + pi_d_a5_a0_proc_1
      + 3807 pi_d_a0_a6_proc_2 + 2538 pi_d_a0_a6_proc_3 + 2538 pi_d_a0_a6_proc_0
      + 3807 pi_d_a0_a6_proc_1 + 1270 pi_d_a6_a0_proc_2 + pi_d_a6_a0_proc_3
      + pi_d_a6_a0_proc_0 + 1270 pi_d_a6_a0_proc_1 + 3807 pi_d_a0_a7_proc_2
      + 2538 pi_d_a0_a7_proc_3 + 2538 pi_d_a0_a7_proc_0 + 1270 pi_d_a7_a0_proc_2
      + pi_d_a7_a0_proc_3 + pi_d_a7_a0_proc_0 + 2539 pi_d_a0_a8_proc_2
      + 3808 pi_d_a0_a8_proc_0 + 3808 pi_d_a0_a8_proc_1 + 1269 pi_d_a8_a0_proc_0
      + 1269 pi_d_a8_a0_proc_1 + 2539 pi_d_a0_a9_proc_2 + pi_d_a0_a9_proc_3
      + 2539 pi_d_a0_a9_proc_1 + 2538 pi_d_a9_a0_proc_2 + 2538 pi_d_a9_a0_proc_1
      + 3807 pi_d_a1_a2_proc_2 + 2538 pi_d_a1_a2_proc_0 + 3807 pi_d_a1_a2_proc_1
      + 1270 pi_d_a2_a1_proc_2 + pi_d_a2_a1_proc_0 + 1270 pi_d_a2_a1_proc_1
      + 102 pi_d_a1_a3_proc_2 + 102 pi_d_a1_a3_proc_0 + 1371 pi_d_a1_a3_proc_1
      + 2437 pi_d_a3_a1_proc_2 + 2437 pi_d_a3_a1_proc_0 + 3706 pi_d_a3_a1_proc_1
      + 3807 pi_d_a1_a4_proc_2 + 2538 pi_d_a1_a4_proc_0 + 2538 pi_d_a1_a4_proc_1
      + 1270 pi_d_a4_a1_proc_2 + pi_d_a4_a1_proc_0 + pi_d_a4_a1_proc_1
      + 3807 pi_d_a1_a5_proc_2 + 2538 pi_d_a1_a5_proc_1 + 1270 pi_d_a5_a1_proc_2
      + pi_d_a5_a1_proc_1 + 2538 pi_d_a1_a6_proc_2 + 2538 pi_d_a1_a6_proc_1
      + 2539 pi_d_a6_a1_proc_2 + pi_d_a6_a1_proc_0 + 2539 pi_d_a6_a1_proc_1
      + 2538 pi_d_a1_a7_proc_2 + 2539 pi_d_a7_a1_proc_2 + pi_d_a7_a1_proc_0
      + 2538 pi_d_a1_a8_proc_2 + 2538 pi_d_a1_a8_proc_0 + 3807 pi_d_a1_a8_proc_1
      + pi_d_a8_a1_proc_2 + pi_d_a8_a1_proc_0 + 1270 pi_d_a8_a1_proc_1
      + 5047 pi_d_a1_a9_proc_2 + 5047 pi_d_a1_a9_proc_1 + 30 pi_d_a9_a1_proc_2
      + 30 pi_d_a9_a1_proc_1 + 2539 pi_d_a2_a3_proc_2 + 3808 pi_d_a2_a3_proc_0
      + 3808 pi_d_a2_a3_proc_1 + 1269 pi_d_a3_a2_proc_0 + 1269 pi_d_a3_a2_proc_1
      + 3808 pi_d_a2_a4_proc_2 + 2539 pi_d_a2_a4_proc_3 + 3808 pi_d_a2_a4_proc_0
      + 2539 pi_d_a2_a4_proc_1 + 1269 pi_d_a4_a2_proc_2 + 1269 pi_d_a4_a2_proc_0
      + 3807 pi_d_a2_a5_proc_2 + 2538 pi_d_a2_a5_proc_3 + 2538 pi_d_a2_a5_proc_1
      + 1270 pi_d_a5_a2_proc_2 + pi_d_a5_a2_proc_3 + pi_d_a5_a2_proc_1
      + 3807 pi_d_a2_a6_proc_2 + 2538 pi_d_a2_a6_proc_3 + 2538 pi_d_a2_a6_proc_0
      + 3807 pi_d_a2_a6_proc_1 + 1270 pi_d_a6_a2_proc_2 + pi_d_a6_a2_proc_3
      + pi_d_a6_a2_proc_0 + 1270 pi_d_a6_a2_proc_1 + 1386 pi_d_a2_a7_proc_2
      + 117 pi_d_a2_a7_proc_3 + 117 pi_d_a2_a7_proc_0 + 3691 pi_d_a7_a2_proc_2
      + 2422 pi_d_a7_a2_proc_3 + 2422 pi_d_a7_a2_proc_0 + 2539 pi_d_a2_a8_proc_2
      + 3808 pi_d_a2_a8_proc_0 + 3808 pi_d_a2_a8_proc_1 + 1269 pi_d_a8_a2_proc_0
      + 1269 pi_d_a8_a2_proc_1 + 2539 pi_d_a2_a9_proc_2 + pi_d_a2_a9_proc_3
      + 2539 pi_d_a2_a9_proc_1 + 2538 pi_d_a9_a2_proc_2 + 2538 pi_d_a9_a2_proc_1
      + 2538 pi_d_a3_a4_proc_2 + 3807 pi_d_a3_a4_proc_0 + 2538 pi_d_a3_a4_proc_1
      + pi_d_a4_a3_proc_2 + 1270 pi_d_a4_a3_proc_0 + pi_d_a4_a3_proc_1
      + 2538 pi_d_a3_a5_proc_2 + 2538 pi_d_a3_a5_proc_1 + pi_d_a5_a3_proc_2
      + pi_d_a5_a3_proc_1 + 2538 pi_d_a3_a6_proc_2 + 2538 pi_d_a3_a6_proc_0
      + 3807 pi_d_a3_a6_proc_1 + pi_d_a6_a3_proc_2 + pi_d_a6_a3_proc_0
      + 1270 pi_d_a6_a3_proc_1 + pi_d_a3_a7_proc_2 + pi_d_a3_a7_proc_0
      + 2538 pi_d_a7_a3_proc_2 + 2538 pi_d_a7_a3_proc_0 + pi_d_a3_a8_proc_2
      + 2539 pi_d_a3_a8_proc_0 + 2539 pi_d_a3_a8_proc_1 + 2538 pi_d_a8_a3_proc_0
      + 2538 pi_d_a8_a3_proc_1 + 2538 pi_d_a3_a9_proc_2 + 3807 pi_d_a3_a9_proc_1
      + pi_d_a9_a3_proc_2 + 1270 pi_d_a9_a3_proc_1 + 2538 pi_d_a4_a5_proc_2
      + 2538 pi_d_a4_a5_proc_3 + 2539 pi_d_a5_a4_proc_2 + 2539 pi_d_a5_a4_proc_3
      + pi_d_a5_a4_proc_1 + 3807 pi_d_a4_a6_proc_2 + 3807 pi_d_a4_a6_proc_3
      + 2538 pi_d_a4_a6_proc_0 + 2538 pi_d_a4_a6_proc_1 + 1270 pi_d_a6_a4_proc_2
      + 1270 pi_d_a6_a4_proc_3 + pi_d_a6_a4_proc_0 + pi_d_a6_a4_proc_1
      + 3807 pi_d_a4_a7_proc_2 + 3807 pi_d_a4_a7_proc_3 + 2538 pi_d_a4_a7_proc_0
      + 1270 pi_d_a7_a4_proc_2 + 1270 pi_d_a7_a4_proc_3 + pi_d_a7_a4_proc_0
      + 2538 pi_d_a4_a8_proc_2 + 3807 pi_d_a4_a8_proc_0 + 2538 pi_d_a4_a8_proc_1
      + pi_d_a8_a4_proc_2 + 1270 pi_d_a8_a4_proc_0 + pi_d_a8_a4_proc_1
      + 3807 pi_d_a4_a9_proc_2 + 2538 pi_d_a4_a9_proc_3 + 2538 pi_d_a4_a9_proc_1
      + 1270 pi_d_a9_a4_proc_2 + pi_d_a9_a4_proc_3 + pi_d_a9_a4_proc_1
      + 3689 pi_d_a5_a6_proc_2 + 3689 pi_d_a5_a6_proc_3 + 2420 pi_d_a5_a6_proc_1
      + 1388 pi_d_a6_a5_proc_2 + 1388 pi_d_a6_a5_proc_3 + 119 pi_d_a6_a5_proc_1
      + 5077 pi_d_a5_a7_proc_2 + 5077 pi_d_a5_a7_proc_3 + pi_d_a5_a8_proc_2
      + pi_d_a5_a8_proc_1 + 2538 pi_d_a8_a5_proc_2 + 2538 pi_d_a8_a5_proc_1
      + 3808 pi_d_a5_a9_proc_2 + 2539 pi_d_a5_a9_proc_3 + 2539 pi_d_a5_a9_proc_1
      + 1269 pi_d_a9_a5_proc_2 + 2539 pi_d_a6_a7_proc_2 + 2539 pi_d_a6_a7_proc_3
      + pi_d_a6_a7_proc_0 + 2538 pi_d_a7_a6_proc_2 + 2538 pi_d_a7_a6_proc_3
      + 2539 pi_d_a6_a8_proc_2 + 2539 pi_d_a6_a8_proc_0 + 3808 pi_d_a6_a8_proc_1
      + 1269 pi_d_a8_a6_proc_1 + 1270 pi_d_a6_a9_proc_2 + pi_d_a6_a9_proc_3
      + 1270 pi_d_a6_a9_proc_1 + 3807 pi_d_a9_a6_proc_2 + 2538 pi_d_a9_a6_proc_3
      + 3807 pi_d_a9_a6_proc_1 + 2538 pi_d_a7_a8_proc_2 + 2538 pi_d_a7_a8_proc_0
      + pi_d_a8_a7_proc_2 + pi_d_a8_a7_proc_0 + 3808 pi_d_a7_a9_proc_2
      + 2539 pi_d_a7_a9_proc_3 + 1269 pi_d_a9_a7_proc_2 + 2538 pi_d_a8_a9_proc_2
      + 3807 pi_d_a8_a9_proc_1 + pi_d_a9_a8_proc_2 + 1270 pi_d_a9_a8_proc_1
      + pi_y2_a0_proc_3 + pi_y2_a1_proc_0 + pi_y2_a2_proc_3 + pi_y2_a3_proc_2
      + pi_y2_a4_proc_1 + pi_y2_a5_proc_1 + pi_y2_a6_proc_0 + pi_y2_a7_proc_0
      + pi_y2_a8_proc_2 + pi_y2_a9_proc_3
Subject To
 c1: pi_nr_a0 + pi_nr_a1 + pi_nr_a2 + pi_nr_a3 + pi_nr_a4 + pi_nr_a5 + pi_nr_a6
     + pi_nr_a7 + pi_nr_a8 + pi_nr_a9 - pi_y1_a0 - pi_y1_a1 - pi_y1_a2
     - pi_y1_a3 - pi_y1_a4 - pi_y1_a5 - pi_y1_a6 - pi_y1_a7 - pi_y1_a8
     - pi_y1_a9 >= 1
 c2: pi_p_a0_a1 + pi_p_a0_a2 - pi_p_a3_a0 - pi_p_a2_a0 + pi_d_a0_a1_proc_2
     + pi_d_a0_a1_proc_0 + pi_d_a0_a1_proc_1 - pi_d_a1_a0_proc_2
     - pi_d_a1_a0_proc_0 - pi_d_a1_a0_proc_1 + pi_d_a0_a2_proc_2
     + pi_d_a0_a2_proc_3 + pi_d_a0_a2_proc_0 + pi_d_a0_a2_proc_1
     - pi_d_a2_a0_proc_2 - pi_d_a2_a0_proc_3 - pi_d_a2_a0_proc_0
     - pi_d_a2_a0_proc_1 + pi_d_a0_a3_proc_2 + pi_d_a0_a3_proc_0
     + pi_d_a0_a3_proc_1 - pi_d_a3_a0_proc_2 - pi_d_a3_a0_proc_0
     - pi_d_a3_a0_proc_1 + pi_d_a0_a4_proc_2 + pi_d_a0_a4_proc_3
     + pi_d_a0_a4_proc_0 + pi_d_a0_a4_proc_1 - pi_d_a4_a0_proc_2
     - pi_d_a4_a0_proc_3 - pi_d_a4_a0_proc_0 - pi_d_a4_a0_proc_1
     + pi_d_a0_a5_proc_2 + pi_d_a0_a5_proc_3 + pi_d_a0_a5_proc_1
     - pi_d_a5_a0_proc_2 - pi_d_a5_a0_proc_3 - pi_d_a5_a0_proc_1
     + pi_d_a0_a6_proc_2 + pi_d_a0_a6_proc_3 + pi_d_a0_a6_proc_0
     + pi_d_a0_a6_proc_1 - pi_d_a6_a0_proc_2 - pi_d_a6_a0_proc_3
     - pi_d_a6_a0_proc_0 - pi_d_a6_a0_proc_1 + pi_d_a0_a7_proc_2
     + pi_d_a0_a7_proc_3 + pi_d_a0_a7_proc_0 - pi_d_a7_a0_proc_2
     - pi_d_a7_a0_proc_3 - pi_d_a7_a0_proc_0 + pi_d_a0_a8_proc_2
     + pi_d_a0_a8_proc_0 + pi_d_a0_a8_proc_1 - pi_d_a8_a0_proc_2
     - pi_d_a8_a0_proc_0 - pi_d_a8_a0_proc_1 + pi_d_a0_a9_proc_2
     + pi_d_a0_a9_proc_3 + pi_d_a0_a9_proc_1 - pi_d_a9_a0_proc_2
     - pi_d_a9_a0_proc_3 - pi_d_a9_a0_proc_1 >= 0
 c3: 1092 pi_p_a0_a1 + 1092 pi_p_a0_a2 + 1092 pi_d_a0_a1_proc_0
     + 1092 pi_d_a0_a2_proc_0 + 1092 pi_d_a0_a3_proc_0 + 1092 pi_d_a0_a4_proc_0
     + 1092 pi_d_a0_a6_proc_0 + 1092 pi_d_a0_a7_proc_0 + 1092 pi_d_a0_a8_proc_0
     + pi_y1_a0 + pi_y2_a0_proc_0 >= 0
 c4: 898 pi_p_a0_a1 + 898 pi_p_a0_a2 + 898 pi_d_a0_a1_proc_1
     + 898 pi_d_a0_a2_proc_1 + 898 pi_d_a0_a3_proc_1 + 898 pi_d_a0_a4_proc_1
     + 898 pi_d_a0_a5_proc_1 + 898 pi_d_a0_a6_proc_1 + 898 pi_d_a0_a8_proc_1
     + 898 pi_d_a0_a9_proc_1 + pi_y1_a0 + pi_y2_a0_proc_1 >= 0
 c5: 1020 pi_p_a0_a1 + 1020 pi_p_a0_a2 + 1020 pi_d_a0_a1_proc_2
     + 1020 pi_d_a0_a2_proc_2 + 1020 pi_d_a0_a3_proc_2 + 1020 pi_d_a0_a4_proc_2
     + 1020 pi_d_a0_a5_proc_2 + 1020 pi_d_a0_a6_proc_2 + 1020 pi_d_a0_a7_proc_2
     + 1020 pi_d_a0_a8_proc_2 + 1020 pi_d_a0_a9_proc_2 + pi_y1_a0
     + pi_y2_a0_proc_2 >= 0
 c6: 502 pi_p_a0_a1 + 502 pi_p_a0_a2 + 502 pi_d_a0_a2_proc_3
     + 502 pi_d_a0_a4_proc_3 + 502 pi_d_a0_a5_proc_3 + 502 pi_d_a0_a6_proc_3
     + 502 pi_d_a0_a7_proc_3 + 502 pi_d_a0_a9_proc_3 + pi_y1_a0
     + pi_y2_a0_proc_3 >= 0
 c7: - pi_p_a0_a1 - pi_p_a8_a1 + pi_p_a1_a6 - pi_d_a0_a1_proc_2
     - pi_d_a0_a1_proc_0 - pi_d_a0_a1_proc_1 + pi_d_a1_a0_proc_2
     + pi_d_a1_a0_proc_0 + pi_d_a1_a0_proc_1 + pi_d_a1_a2_proc_2
     + pi_d_a1_a2_proc_0 + pi_d_a1_a2_proc_1 - pi_d_a2_a1_proc_2
     - pi_d_a2_a1_proc_0 - pi_d_a2_a1_proc_1 + pi_d_a1_a3_proc_2
     + pi_d_a1_a3_proc_0 + pi_d_a1_a3_proc_1 - pi_d_a3_a1_proc_2
     - pi_d_a3_a1_proc_0 - pi_d_a3_a1_proc_1 + pi_d_a1_a4_proc_2
     + pi_d_a1_a4_proc_0 + pi_d_a1_a4_proc_1 - pi_d_a4_a1_proc_2
     - pi_d_a4_a1_proc_0 - pi_d_a4_a1_proc_1 + pi_d_a1_a5_proc_2
     + pi_d_a1_a5_proc_1 - pi_d_a5_a1_proc_2 - pi_d_a5_a1_proc_1
     + pi_d_a1_a6_proc_2 + pi_d_a1_a6_proc_0 + pi_d_a1_a6_proc_1
     - pi_d_a6_a1_proc_2 - pi_d_a6_a1_proc_0 - pi_d_a6_a1_proc_1
     + pi_d_a1_a7_proc_2 + pi_d_a1_a7_proc_0 - pi_d_a7_a1_proc_2
     - pi_d_a7_a1_proc_0 + pi_d_a1_a8_proc_2 + pi_d_a1_a8_proc_0
     + pi_d_a1_a8_proc_1 - pi_d_a8_a1_proc_2 - pi_d_a8_a1_proc_0
     - pi_d_a8_a1_proc_1 + pi_d_a1_a9_proc_2 + pi_d_a1_a9_proc_1
     - pi_d_a9_a1_proc_2 - pi_d_a9_a1_proc_1 >= 0
 c8: 869 pi_p_a1_a6 + 869 pi_d_a1_a0_proc_0 + 869 pi_d_a1_a2_proc_0
     + 869 pi_d_a1_a3_proc_0 + 869 pi_d_a1_a4_proc_0 + 869 pi_d_a1_a6_proc_0
     + 869 pi_d_a1_a7_proc_0 + 869 pi_d_a1_a8_proc_0 + pi_y1_a1
     + pi_y2_a1_proc_0 >= 0
 c9: 769 pi_p_a1_a6 + 769 pi_d_a1_a0_proc_1 + 769 pi_d_a1_a2_proc_1
     + 769 pi_d_a1_a3_proc_1 + 769 pi_d_a1_a4_proc_1 + 769 pi_d_a1_a5_proc_1
     + 769 pi_d_a1_a6_proc_1 + 769 pi_d_a1_a8_proc_1 + 769 pi_d_a1_a9_proc_1
     + pi_y1_a1 + pi_y2_a1_proc_1 >= 0
 c10: 843 pi_p_a1_a6 + 843 pi_d_a1_a0_proc_2 + 843 pi_d_a1_a2_proc_2
      + 843 pi_d_a1_a3_proc_2 + 843 pi_d_a1_a4_proc_2 + 843 pi_d_a1_a5_proc_2
      + 843 pi_d_a1_a6_proc_2 + 843 pi_d_a1_a7_proc_2 + 843 pi_d_a1_a8_proc_2
      + 843 pi_d_a1_a9_proc_2 + pi_y1_a1 + pi_y2_a1_proc_2 >= 0
 c11: - pi_p_a0_a2 + pi_p_a2_a5 + pi_p_a2_a7 + pi_p_a2_a0 - pi_d_a0_a2_proc_2
      - pi_d_a0_a2_proc_3 - pi_d_a0_a2_proc_0 - pi_d_a0_a2_proc_1
      + pi_d_a2_a0_proc_2 + pi_d_a2_a0_proc_3 + pi_d_a2_a0_proc_0
      + pi_d_a2_a0_proc_1 - pi_d_a1_a2_proc_2 - pi_d_a1_a2_proc_0
      - pi_d_a1_a2_proc_1 + pi_d_a2_a1_proc_2 + pi_d_a2_a1_proc_0
      + pi_d_a2_a1_proc_1 + pi_d_a2_a3_proc_2 + pi_d_a2_a3_proc_0
      + pi_d_a2_a3_proc_1 - pi_d_a3_a2_proc_2 - pi_d_a3_a2_proc_0
      - pi_d_a3_a2_proc_1 + pi_d_a2_a4_proc_2 + pi_d_a2_a4_proc_3
      + pi_d_a2_a4_proc_0 + pi_d_a2_a4_proc_1 - pi_d_a4_a2_proc_2
      - pi_d_a4_a2_proc_3 - pi_d_a4_a2_proc_0 - pi_d_a4_a2_proc_1
      + pi_d_a2_a5_proc_2 + pi_d_a2_a5_proc_3 + pi_d_a2_a5_proc_1
      - pi_d_a5_a2_proc_2 - pi_d_a5_a2_proc_3 - pi_d_a5_a2_proc_1
      + pi_d_a2_a6_proc_2 + pi_d_a2_a6_proc_3 + pi_d_a2_a6_proc_0
      + pi_d_a2_a6_proc_1 - pi_d_a6_a2_proc_2 - pi_d_a6_a2_proc_3
      - pi_d_a6_a2_proc_0 - pi_d_a6_a2_proc_1 + pi_d_a2_a7_proc_2
      + pi_d_a2_a7_proc_3 + pi_d_a2_a7_proc_0 - pi_d_a7_a2_proc_2
      - pi_d_a7_a2_proc_3 - pi_d_a7_a2_proc_0 + pi_d_a2_a8_proc_2
      + pi_d_a2_a8_proc_0 + pi_d_a2_a8_proc_1 - pi_d_a8_a2_proc_2
      - pi_d_a8_a2_proc_0 - pi_d_a8_a2_proc_1 + pi_d_a2_a9_proc_2
      + pi_d_a2_a9_proc_3 + pi_d_a2_a9_proc_1 - pi_d_a9_a2_proc_2
      - pi_d_a9_a2_proc_3 - pi_d_a9_a2_proc_1 >= 0
 c12: 1064 pi_p_a2_a5 + 1064 pi_p_a2_a7 + 1064 pi_p_a2_a0
      + 1064 pi_d_a2_a0_proc_0 + 1064 pi_d_a2_a1_proc_0 + 1064 pi_d_a2_a3_proc_0
      + 1064 pi_d_a2_a4_proc_0 + 1064 pi_d_a2_a6_proc_0 + 1064 pi_d_a2_a7_proc_0
      + 1064 pi_d_a2_a8_proc_0 + pi_y1_a2 + pi_y2_a2_proc_0 >= 0
 c13: 1216 pi_p_a2_a5 + 1216 pi_p_a2_a7 + 1216 pi_p_a2_a0
      + 1216 pi_d_a2_a0_proc_1 + 1216 pi_d_a2_a1_proc_1 + 1216 pi_d_a2_a3_proc_1
      + 1216 pi_d_a2_a4_proc_1 + 1216 pi_d_a2_a5_proc_1 + 1216 pi_d_a2_a6_proc_1
      + 1216 pi_d_a2_a8_proc_1 + 1216 pi_d_a2_a9_proc_1 + pi_y1_a2
      + pi_y2_a2_proc_1 >= 0
 c14: 1001 pi_p_a2_a5 + 1001 pi_p_a2_a7 + 1001 pi_p_a2_a0
      + 1001 pi_d_a2_a0_proc_2 + 1001 pi_d_a2_a1_proc_2 + 1001 pi_d_a2_a3_proc_2
      + 1001 pi_d_a2_a4_proc_2 + 1001 pi_d_a2_a5_proc_2 + 1001 pi_d_a2_a6_proc_2
      + 1001 pi_d_a2_a7_proc_2 + 1001 pi_d_a2_a8_proc_2 + 1001 pi_d_a2_a9_proc_2
      + pi_y1_a2 + pi_y2_a2_proc_2 >= 0
 c15: 849 pi_p_a2_a5 + 849 pi_p_a2_a7 + 849 pi_p_a2_a0 + 849 pi_d_a2_a0_proc_3
      + 849 pi_d_a2_a4_proc_3 + 849 pi_d_a2_a5_proc_3 + 849 pi_d_a2_a6_proc_3
      + 849 pi_d_a2_a7_proc_3 + 849 pi_d_a2_a9_proc_3 + pi_y1_a2
      + pi_y2_a2_proc_3 >= 0
 c16: pi_p_a3_a0 - pi_p_a4_a3 - pi_d_a0_a3_proc_2 - pi_d_a0_a3_proc_0
      - pi_d_a0_a3_proc_1 + pi_d_a3_a0_proc_2 + pi_d_a3_a0_proc_0
      + pi_d_a3_a0_proc_1 - pi_d_a1_a3_proc_2 - pi_d_a1_a3_proc_0
      - pi_d_a1_a3_proc_1 + pi_d_a3_a1_proc_2 + pi_d_a3_a1_proc_0
      + pi_d_a3_a1_proc_1 - pi_d_a2_a3_proc_2 - pi_d_a2_a3_proc_0
      - pi_d_a2_a3_proc_1 + pi_d_a3_a2_proc_2 + pi_d_a3_a2_proc_0
      + pi_d_a3_a2_proc_1 + pi_d_a3_a4_proc_2 + pi_d_a3_a4_proc_0
      + pi_d_a3_a4_proc_1 - pi_d_a4_a3_proc_2 - pi_d_a4_a3_proc_0
      - pi_d_a4_a3_proc_1 + pi_d_a3_a5_proc_2 + pi_d_a3_a5_proc_1
      - pi_d_a5_a3_proc_2 - pi_d_a5_a3_proc_1 + pi_d_a3_a6_proc_2
      + pi_d_a3_a6_proc_0 + pi_d_a3_a6_proc_1 - pi_d_a6_a3_proc_2
      - pi_d_a6_a3_proc_0 - pi_d_a6_a3_proc_1 + pi_d_a3_a7_proc_2
      + pi_d_a3_a7_proc_0 - pi_d_a7_a3_proc_2 - pi_d_a7_a3_proc_0
      + pi_d_a3_a8_proc_2 + pi_d_a3_a8_proc_0 + pi_d_a3_a8_proc_1
      - pi_d_a8_a3_proc_2 - pi_d_a8_a3_proc_0 - pi_d_a8_a3_proc_1
      + pi_d_a3_a9_proc_2 + pi_d_a3_a9_proc_1 - pi_d_a9_a3_proc_2
      - pi_d_a9_a3_proc_1 >= 0
 c17: 919 pi_p_a3_a0 + 919 pi_d_a3_a0_proc_0 + 919 pi_d_a3_a1_proc_0
      + 919 pi_d_a3_a2_proc_0 + 919 pi_d_a3_a4_proc_0 + 919 pi_d_a3_a6_proc_0
      + 919 pi_d_a3_a7_proc_0 + 919 pi_d_a3_a8_proc_0 + pi_y1_a3
      + pi_y2_a3_proc_0 >= 0
 c18: 1228 pi_p_a3_a0 + 1228 pi_d_a3_a0_proc_1 + 1228 pi_d_a3_a1_proc_1
      + 1228 pi_d_a3_a2_proc_1 + 1228 pi_d_a3_a4_proc_1 + 1228 pi_d_a3_a5_proc_1
      + 1228 pi_d_a3_a6_proc_1 + 1228 pi_d_a3_a8_proc_1 + 1228 pi_d_a3_a9_proc_1
      + pi_y1_a3 + pi_y2_a3_proc_1 >= 0
 c19: 831 pi_p_a3_a0 + 831 pi_d_a3_a0_proc_2 + 831 pi_d_a3_a1_proc_2
      + 831 pi_d_a3_a2_proc_2 + 831 pi_d_a3_a4_proc_2 + 831 pi_d_a3_a5_proc_2
      + 831 pi_d_a3_a6_proc_2 + 831 pi_d_a3_a7_proc_2 + 831 pi_d_a3_a8_proc_2
      + 831 pi_d_a3_a9_proc_2 + pi_y1_a3 + pi_y2_a3_proc_2 >= 0
 c20: pi_p_a4_a3 - pi_p_a6_a4 - pi_p_a9_a4 + pi_p_a4_a6 - pi_d_a0_a4_proc_2
      - pi_d_a0_a4_proc_3 - pi_d_a0_a4_proc_0 - pi_d_a0_a4_proc_1
      + pi_d_a4_a0_proc_2 + pi_d_a4_a0_proc_3 + pi_d_a4_a0_proc_0
      + pi_d_a4_a0_proc_1 - pi_d_a1_a4_proc_2 - pi_d_a1_a4_proc_0
      - pi_d_a1_a4_proc_1 + pi_d_a4_a1_proc_2 + pi_d_a4_a1_proc_0
      + pi_d_a4_a1_proc_1 - pi_d_a2_a4_proc_2 - pi_d_a2_a4_proc_3
      - pi_d_a2_a4_proc_0 - pi_d_a2_a4_proc_1 + pi_d_a4_a2_proc_2
      + pi_d_a4_a2_proc_3 + pi_d_a4_a2_proc_0 + pi_d_a4_a2_proc_1
      - pi_d_a3_a4_proc_2 - pi_d_a3_a4_proc_0 - pi_d_a3_a4_proc_1
      + pi_d_a4_a3_proc_2 + pi_d_a4_a3_proc_0 + pi_d_a4_a3_proc_1
      + pi_d_a4_a5_proc_2 + pi_d_a4_a5_proc_3 + pi_d_a4_a5_proc_1
      - pi_d_a5_a4_proc_2 - pi_d_a5_a4_proc_3 - pi_d_a5_a4_proc_1
      + pi_d_a4_a6_proc_2 + pi_d_a4_a6_proc_3 + pi_d_a4_a6_proc_0
      + pi_d_a4_a6_proc_1 - pi_d_a6_a4_proc_2 - pi_d_a6_a4_proc_3
      - pi_d_a6_a4_proc_0 - pi_d_a6_a4_proc_1 + pi_d_a4_a7_proc_2
      + pi_d_a4_a7_proc_3 + pi_d_a4_a7_proc_0 - pi_d_a7_a4_proc_2
      - pi_d_a7_a4_proc_3 - pi_d_a7_a4_proc_0 + pi_d_a4_a8_proc_2
      + pi_d_a4_a8_proc_0 + pi_d_a4_a8_proc_1 - pi_d_a8_a4_proc_2
      - pi_d_a8_a4_proc_0 - pi_d_a8_a4_proc_1 + pi_d_a4_a9_proc_2
      + pi_d_a4_a9_proc_3 + pi_d_a4_a9_proc_1 - pi_d_a9_a4_proc_2
      - pi_d_a9_a4_proc_3 - pi_d_a9_a4_proc_1 >= 0
 c21: 1269 pi_p_a4_a3 + 1269 pi_p_a4_a6 + 1269 pi_d_a4_a0_proc_0
      + 1269 pi_d_a4_a1_proc_0 + 1269 pi_d_a4_a2_proc_0 + 1269 pi_d_a4_a3_proc_0
      + 1269 pi_d_a4_a6_proc_0 + 1269 pi_d_a4_a7_proc_0 + 1269 pi_d_a4_a8_proc_0
      + pi_y1_a4 + pi_y2_a4_proc_0 >= 0
 c22: 549 pi_p_a4_a3 + 549 pi_p_a4_a6 + 549 pi_d_a4_a0_proc_1
      + 549 pi_d_a4_a1_proc_1 + 549 pi_d_a4_a2_proc_1 + 549 pi_d_a4_a3_proc_1
      + 549 pi_d_a4_a5_proc_1 + 549 pi_d_a4_a6_proc_1 + 549 pi_d_a4_a8_proc_1
      + 549 pi_d_a4_a9_proc_1 + pi_y1_a4 + pi_y2_a4_proc_1 >= 0
 c23: 726 pi_p_a4_a3 + 726 pi_p_a4_a6 + 726 pi_d_a4_a0_proc_2
      + 726 pi_d_a4_a1_proc_2 + 726 pi_d_a4_a2_proc_2 + 726 pi_d_a4_a3_proc_2
      + 726 pi_d_a4_a5_proc_2 + 726 pi_d_a4_a6_proc_2 + 726 pi_d_a4_a7_proc_2
      + 726 pi_d_a4_a8_proc_2 + 726 pi_d_a4_a9_proc_2 + pi_y1_a4
      + pi_y2_a4_proc_2 >= 0
 c24: 1199 pi_p_a4_a3 + 1199 pi_p_a4_a6 + 1199 pi_d_a4_a0_proc_3
      + 1199 pi_d_a4_a2_proc_3 + 1199 pi_d_a4_a5_proc_3 + 1199 pi_d_a4_a6_proc_3
      + 1199 pi_d_a4_a7_proc_3 + 1199 pi_d_a4_a9_proc_3 + pi_y1_a4
      + pi_y2_a4_proc_3 >= 0
 c25: - pi_p_a2_a5 + pi_p_a5_a9 - pi_d_a0_a5_proc_2 - pi_d_a0_a5_proc_3
      - pi_d_a0_a5_proc_1 + pi_d_a5_a0_proc_2 + pi_d_a5_a0_proc_3
      + pi_d_a5_a0_proc_1 - pi_d_a1_a5_proc_2 - pi_d_a1_a5_proc_1
      + pi_d_a5_a1_proc_2 + pi_d_a5_a1_proc_1 - pi_d_a2_a5_proc_2
      - pi_d_a2_a5_proc_3 - pi_d_a2_a5_proc_1 + pi_d_a5_a2_proc_2
      + pi_d_a5_a2_proc_3 + pi_d_a5_a2_proc_1 - pi_d_a3_a5_proc_2
      - pi_d_a3_a5_proc_1 + pi_d_a5_a3_proc_2 + pi_d_a5_a3_proc_1
      - pi_d_a4_a5_proc_2 - pi_d_a4_a5_proc_3 - pi_d_a4_a5_proc_1
      + pi_d_a5_a4_proc_2 + pi_d_a5_a4_proc_3 + pi_d_a5_a4_proc_1
      + pi_d_a5_a6_proc_2 + pi_d_a5_a6_proc_3 + pi_d_a5_a6_proc_1
      - pi_d_a6_a5_proc_2 - pi_d_a6_a5_proc_3 - pi_d_a6_a5_proc_1
      + pi_d_a5_a7_proc_2 + pi_d_a5_a7_proc_3 - pi_d_a7_a5_proc_2
      - pi_d_a7_a5_proc_3 + pi_d_a5_a8_proc_2 + pi_d_a5_a8_proc_1
      - pi_d_a8_a5_proc_2 - pi_d_a8_a5_proc_1 + pi_d_a5_a9_proc_2
      + pi_d_a5_a9_proc_3 + pi_d_a5_a9_proc_1 - pi_d_a9_a5_proc_2
      - pi_d_a9_a5_proc_3 - pi_d_a9_a5_proc_1 >= 0
 c26: 553 pi_p_a5_a9 + 553 pi_p_a5_a5 + 553 pi_d_a5_a0_proc_1
      + 553 pi_d_a5_a1_proc_1 + 553 pi_d_a5_a2_proc_1 + 553 pi_d_a5_a3_proc_1
      + 553 pi_d_a5_a4_proc_1 + 553 pi_d_a5_a6_proc_1 + 553 pi_d_a5_a8_proc_1
      + 553 pi_d_a5_a9_proc_1 + pi_y1_a5 + pi_y2_a5_proc_1 >= 0
 c27: 945 pi_p_a5_a9 + 945 pi_p_a5_a5 + 945 pi_d_a5_a0_proc_2
      + 945 pi_d_a5_a1_proc_2 + 945 pi_d_a5_a2_proc_2 + 945 pi_d_a5_a3_proc_2
      + 945 pi_d_a5_a4_proc_2 + 945 pi_d_a5_a6_proc_2 + 945 pi_d_a5_a7_proc_2
      + 945 pi_d_a5_a8_proc_2 + 945 pi_d_a5_a9_proc_2 + pi_y1_a5
      + pi_y2_a5_proc_2 >= 0
 c28: 848 pi_p_a5_a9 + 848 pi_p_a5_a5 + 848 pi_d_a5_a0_proc_3
      + 848 pi_d_a5_a2_proc_3 + 848 pi_d_a5_a4_proc_3 + 848 pi_d_a5_a6_proc_3
      + 848 pi_d_a5_a7_proc_3 + 848 pi_d_a5_a9_proc_3 + pi_y1_a5
      + pi_y2_a5_proc_3 >= 0
 c29: pi_p_a6_a4 - pi_p_a1_a6 - pi_p_a4_a6 - pi_p_a7_a6 - pi_d_a0_a6_proc_2
      - pi_d_a0_a6_proc_3 - pi_d_a0_a6_proc_0 - pi_d_a0_a6_proc_1
      + pi_d_a6_a0_proc_2 + pi_d_a6_a0_proc_3 + pi_d_a6_a0_proc_0
      + pi_d_a6_a0_proc_1 - pi_d_a1_a6_proc_2 - pi_d_a1_a6_proc_0
      - pi_d_a1_a6_proc_1 + pi_d_a6_a1_proc_2 + pi_d_a6_a1_proc_0
      + pi_d_a6_a1_proc_1 - pi_d_a2_a6_proc_2 - pi_d_a2_a6_proc_3
      - pi_d_a2_a6_proc_0 - pi_d_a2_a6_proc_1 + pi_d_a6_a2_proc_2
      + pi_d_a6_a2_proc_3 + pi_d_a6_a2_proc_0 + pi_d_a6_a2_proc_1
      - pi_d_a3_a6_proc_2 - pi_d_a3_a6_proc_0 - pi_d_a3_a6_proc_1
      + pi_d_a6_a3_proc_2 + pi_d_a6_a3_proc_0 + pi_d_a6_a3_proc_1
      - pi_d_a4_a6_proc_2 - pi_d_a4_a6_proc_3 - pi_d_a4_a6_proc_0
      - pi_d_a4_a6_proc_1 + pi_d_a6_a4_proc_2 + pi_d_a6_a4_proc_3
      + pi_d_a6_a4_proc_0 + pi_d_a6_a4_proc_1 - pi_d_a5_a6_proc_2
      - pi_d_a5_a6_proc_3 - pi_d_a5_a6_proc_1 + pi_d_a6_a5_proc_2
      + pi_d_a6_a5_proc_3 + pi_d_a6_a5_proc_1 + pi_d_a6_a7_proc_2
      + pi_d_a6_a7_proc_3 + pi_d_a6_a7_proc_0 - pi_d_a7_a6_proc_2
      - pi_d_a7_a6_proc_3 - pi_d_a7_a6_proc_0 + pi_d_a6_a8_proc_2
      + pi_d_a6_a8_proc_0 + pi_d_a6_a8_proc_1 - pi_d_a8_a6_proc_2
      - pi_d_a8_a6_proc_0 - pi_d_a8_a6_proc_1 + pi_d_a6_a9_proc_2
      + pi_d_a6_a9_proc_3 + pi_d_a6_a9_proc_1 - pi_d_a9_a6_proc_2
      - pi_d_a9_a6_proc_3 - pi_d_a9_a6_proc_1 >= 0
 c30: 826 pi_p_a6_a4 + 826 pi_d_a6_a0_proc_0 + 826 pi_d_a6_a1_proc_0
      + 826 pi_d_a6_a2_proc_0 + 826 pi_d_a6_a3_proc_0 + 826 pi_d_a6_a4_proc_0
      + 826 pi_d_a6_a7_proc_0 + 826 pi_d_a6_a8_proc_0 + pi_y1_a6
      + pi_y2_a6_proc_0 >= 0
 c31: 1016 pi_p_a6_a4 + 1016 pi_d_a6_a0_proc_1 + 1016 pi_d_a6_a1_proc_1
      + 1016 pi_d_a6_a2_proc_1 + 1016 pi_d_a6_a3_proc_1 + 1016 pi_d_a6_a4_proc_1
      + 1016 pi_d_a6_a5_proc_1 + 1016 pi_d_a6_a8_proc_1 + 1016 pi_d_a6_a9_proc_1
      + pi_y1_a6 + pi_y2_a6_proc_1 >= 0
 c32: 1123 pi_p_a6_a4 + 1123 pi_d_a6_a0_proc_2 + 1123 pi_d_a6_a1_proc_2
      + 1123 pi_d_a6_a2_proc_2 + 1123 pi_d_a6_a3_proc_2 + 1123 pi_d_a6_a4_proc_2
      + 1123 pi_d_a6_a5_proc_2 + 1123 pi_d_a6_a7_proc_2 + 1123 pi_d_a6_a8_proc_2
      + 1123 pi_d_a6_a9_proc_2 + pi_y1_a6 + pi_y2_a6_proc_2 >= 0
 c33: 1210 pi_p_a6_a4 + 1210 pi_d_a6_a0_proc_3 + 1210 pi_d_a6_a2_proc_3
      + 1210 pi_d_a6_a4_proc_3 + 1210 pi_d_a6_a5_proc_3 + 1210 pi_d_a6_a7_proc_3
      + 1210 pi_d_a6_a9_proc_3 + pi_y1_a6 + pi_y2_a6_proc_3 >= 0
 c34: - pi_p_a2_a7 + pi_p_a7_a6 - pi_d_a0_a7_proc_2 - pi_d_a0_a7_proc_3
      - pi_d_a0_a7_proc_0 + pi_d_a7_a0_proc_2 + pi_d_a7_a0_proc_3
      + pi_d_a7_a0_proc_0 - pi_d_a1_a7_proc_2 - pi_d_a1_a7_proc_0
      + pi_d_a7_a1_proc_2 + pi_d_a7_a1_proc_0 - pi_d_a2_a7_proc_2
      - pi_d_a2_a7_proc_3 - pi_d_a2_a7_proc_0 + pi_d_a7_a2_proc_2
      + pi_d_a7_a2_proc_3 + pi_d_a7_a2_proc_0 - pi_d_a3_a7_proc_2
      - pi_d_a3_a7_proc_0 + pi_d_a7_a3_proc_2 + pi_d_a7_a3_proc_0
      - pi_d_a4_a7_proc_2 - pi_d_a4_a7_proc_3 - pi_d_a4_a7_proc_0
      + pi_d_a7_a4_proc_2 + pi_d_a7_a4_proc_3 + pi_d_a7_a4_proc_0
      - pi_d_a5_a7_proc_2 - pi_d_a5_a7_proc_3 + pi_d_a7_a5_proc_2
      + pi_d_a7_a5_proc_3 - pi_d_a6_a7_proc_2 - pi_d_a6_a7_proc_3
      - pi_d_a6_a7_proc_0 + pi_d_a7_a6_proc_2 + pi_d_a7_a6_proc_3
      + pi_d_a7_a6_proc_0 + pi_d_a7_a8_proc_2 + pi_d_a7_a8_proc_0
      - pi_d_a8_a7_proc_2 - pi_d_a8_a7_proc_0 + pi_d_a7_a9_proc_2
      + pi_d_a7_a9_proc_3 - pi_d_a9_a7_proc_2 - pi_d_a9_a7_proc_3 >= 0
 c35: 585 pi_p_a7_a6 + 585 pi_d_a7_a0_proc_0 + 585 pi_d_a7_a1_proc_0
      + 585 pi_d_a7_a2_proc_0 + 585 pi_d_a7_a3_proc_0 + 585 pi_d_a7_a4_proc_0
      + 585 pi_d_a7_a6_proc_0 + 585 pi_d_a7_a8_proc_0 + pi_y1_a7
      + pi_y2_a7_proc_0 >= 0
 c36: 1150 pi_p_a7_a6 + 1150 pi_d_a7_a0_proc_2 + 1150 pi_d_a7_a1_proc_2
      + 1150 pi_d_a7_a2_proc_2 + 1150 pi_d_a7_a3_proc_2 + 1150 pi_d_a7_a4_proc_2
      + 1150 pi_d_a7_a5_proc_2 + 1150 pi_d_a7_a6_proc_2 + 1150 pi_d_a7_a8_proc_2
      + 1150 pi_d_a7_a9_proc_2 + pi_y1_a7 + pi_y2_a7_proc_2 >= 0
 c37: 1214 pi_p_a7_a6 + 1214 pi_d_a7_a0_proc_3 + 1214 pi_d_a7_a2_proc_3
      + 1214 pi_d_a7_a4_proc_3 + 1214 pi_d_a7_a5_proc_3 + 1214 pi_d_a7_a6_proc_3
      + 1214 pi_d_a7_a9_proc_3 + pi_y1_a7 + pi_y2_a7_proc_3 >= 0
 c38: pi_p_a8_a1 - pi_p_a9_a8 - pi_d_a0_a8_proc_2 - pi_d_a0_a8_proc_0
      - pi_d_a0_a8_proc_1 + pi_d_a8_a0_proc_2 + pi_d_a8_a0_proc_0
      + pi_d_a8_a0_proc_1 - pi_d_a1_a8_proc_2 - pi_d_a1_a8_proc_0
      - pi_d_a1_a8_proc_1 + pi_d_a8_a1_proc_2 + pi_d_a8_a1_proc_0
      + pi_d_a8_a1_proc_1 - pi_d_a2_a8_proc_2 - pi_d_a2_a8_proc_0
      - pi_d_a2_a8_proc_1 + pi_d_a8_a2_proc_2 + pi_d_a8_a2_proc_0
      + pi_d_a8_a2_proc_1 - pi_d_a3_a8_proc_2 - pi_d_a3_a8_proc_0
      - pi_d_a3_a8_proc_1 + pi_d_a8_a3_proc_2 + pi_d_a8_a3_proc_0
      + pi_d_a8_a3_proc_1 - pi_d_a4_a8_proc_2 - pi_d_a4_a8_proc_0
      - pi_d_a4_a8_proc_1 + pi_d_a8_a4_proc_2 + pi_d_a8_a4_proc_0
      + pi_d_a8_a4_proc_1 - pi_d_a5_a8_proc_2 - pi_d_a5_a8_proc_1
      + pi_d_a8_a5_proc_2 + pi_d_a8_a5_proc_1 - pi_d_a6_a8_proc_2
      - pi_d_a6_a8_proc_0 - pi_d_a6_a8_proc_1 + pi_d_a8_a6_proc_2
      + pi_d_a8_a6_proc_0 + pi_d_a8_a6_proc_1 - pi_d_a7_a8_proc_2
      - pi_d_a7_a8_proc_0 + pi_d_a8_a7_proc_2 + pi_d_a8_a7_proc_0
      + pi_d_a8_a9_proc_2 + pi_d_a8_a9_proc_1 - pi_d_a9_a8_proc_2
      - pi_d_a9_a8_proc_1 >= 0
 c39: 1199 pi_p_a8_a1 + 1199 pi_p_a8_a8 + 1199 pi_d_a8_a0_proc_0
      + 1199 pi_d_a8_a1_proc_0 + 1199 pi_d_a8_a2_proc_0 + 1199 pi_d_a8_a3_proc_0
      + 1199 pi_d_a8_a4_proc_0 + 1199 pi_d_a8_a6_proc_0 + 1199 pi_d_a8_a7_proc_0
      + pi_y1_a8 + pi_y2_a8_proc_0 >= 0
 c40: 840 pi_p_a8_a1 + 840 pi_p_a8_a8 + 840 pi_d_a8_a0_proc_1
      + 840 pi_d_a8_a1_proc_1 + 840 pi_d_a8_a2_proc_1 + 840 pi_d_a8_a3_proc_1
      + 840 pi_d_a8_a4_proc_1 + 840 pi_d_a8_a5_proc_1 + 840 pi_d_a8_a6_proc_1
      + 840 pi_d_a8_a9_proc_1 + pi_y1_a8 + pi_y2_a8_proc_1 >= 0
 c41: 320 pi_p_a8_a1 + 320 pi_p_a8_a8 + 320 pi_d_a8_a0_proc_2
      + 320 pi_d_a8_a1_proc_2 + 320 pi_d_a8_a2_proc_2 + 320 pi_d_a8_a3_proc_2
      + 320 pi_d_a8_a4_proc_2 + 320 pi_d_a8_a5_proc_2 + 320 pi_d_a8_a6_proc_2
      + 320 pi_d_a8_a7_proc_2 + 320 pi_d_a8_a9_proc_2 + pi_y1_a8
      + pi_y2_a8_proc_2 >= 0
 c42: pi_p_a9_a4 - pi_p_a5_a9 + pi_p_a9_a8 - pi_d_a0_a9_proc_2
      - pi_d_a0_a9_proc_3 - pi_d_a0_a9_proc_1 + pi_d_a9_a0_proc_2
      + pi_d_a9_a0_proc_3 + pi_d_a9_a0_proc_1 - pi_d_a1_a9_proc_2
      - pi_d_a1_a9_proc_1 + pi_d_a9_a1_proc_2 + pi_d_a9_a1_proc_1
      - pi_d_a2_a9_proc_2 - pi_d_a2_a9_proc_3 - pi_d_a2_a9_proc_1
      + pi_d_a9_a2_proc_2 + pi_d_a9_a2_proc_3 + pi_d_a9_a2_proc_1
      - pi_d_a3_a9_proc_2 - pi_d_a3_a9_proc_1 + pi_d_a9_a3_proc_2
      + pi_d_a9_a3_proc_1 - pi_d_a4_a9_proc_2 - pi_d_a4_a9_proc_3
      - pi_d_a4_a9_proc_1 + pi_d_a9_a4_proc_2 + pi_d_a9_a4_proc_3
      + pi_d_a9_a4_proc_1 - pi_d_a5_a9_proc_2 - pi_d_a5_a9_proc_3
      - pi_d_a5_a9_proc_1 + pi_d_a9_a5_proc_2 + pi_d_a9_a5_proc_3
      + pi_d_a9_a5_proc_1 - pi_d_a6_a9_proc_2 - pi_d_a6_a9_proc_3
      - pi_d_a6_a9_proc_1 + pi_d_a9_a6_proc_2 + pi_d_a9_a6_proc_3
      + pi_d_a9_a6_proc_1 - pi_d_a7_a9_proc_2 - pi_d_a7_a9_proc_3
      + pi_d_a9_a7_proc_2 + pi_d_a9_a7_proc_3 - pi_d_a8_a9_proc_2
      - pi_d_a8_a9_proc_1 + pi_d_a9_a8_proc_2 + pi_d_a9_a8_proc_1 >= 0
 c43: 674 pi_p_a9_a4 + 674 pi_p_a9_a8 + 674 pi_d_a9_a0_proc_1
      + 674 pi_d_a9_a1_proc_1 + 674 pi_d_a9_a2_proc_1 + 674 pi_d_a9_a3_proc_1
      + 674 pi_d_a9_a4_proc_1 + 674 pi_d_a9_a5_proc_1 + 674 pi_d_a9_a6_proc_1
      + 674 pi_d_a9_a8_proc_1 + pi_y1_a9 + pi_y2_a9_proc_1 >= 0
 c44: 1024 pi_p_a9_a4 + 1024 pi_p_a9_a8 + 1024 pi_d_a9_a0_proc_2
      + 1024 pi_d_a9_a1_proc_2 + 1024 pi_d_a9_a2_proc_2 + 1024 pi_d_a9_a3_proc_2
      + 1024 pi_d_a9_a4_proc_2 + 1024 pi_d_a9_a5_proc_2 + 1024 pi_d_a9_a6_proc_2
      + 1024 pi_d_a9_a7_proc_2 + 1024 pi_d_a9_a8_proc_2 + pi_y1_a9
      + pi_y2_a9_proc_2 >= 0
 c45: 402 pi_p_a9_a4 + 402 pi_p_a9_a8 + 402 pi_d_a9_a0_proc_3
      + 402 pi_d_a9_a2_proc_3 + 402 pi_d_a9_a4_proc_3 + 402 pi_d_a9_a5_proc_3
      + 402 pi_d_a9_a6_proc_3 + 402 pi_d_a9_a7_proc_3 + pi_y1_a9
      + pi_y2_a9_proc_3 >= 0

Bounds
       pi_y1_a0 Free
       pi_y1_a1 Free
       pi_y1_a2 Free
       pi_y1_a3 Free
       pi_y1_a4 Free
       pi_y1_a5 Free
       pi_y1_a6 Free
       pi_y1_a7 Free
       pi_y1_a8 Free
       pi_y1_a9 Free
End
