benchmark/results/graph__10-1000-0.10-04_16/graph__10-1000-0.10-04_16_Quinton_Benders_sub.txt
solution for: Quinton Benders_dual_sub
objective: 0.000271297
status: OPTIMAL_SOLUTION(2)
pi_p_a4_a3=0.000
pi_p_a2_a5=0.000
pi_p_a9_a4=0.000
pi_p_a5_a9=0.000
pi_d_a0_a2_proc_3=0.000
pi_d_a3_a0_proc_2=0.000
pi_y1_a0=-0.136
pi_y1_a2=-0.230
pi_y1_a3=-0.225
pi_y1_a4=-0.149
pi_y1_a5=-0.150
pi_y1_a9=-0.109
pi_y2_a0_proc_0=0.136
pi_y2_a0_proc_1=0.136
pi_y2_a0_proc_2=0.136
pi_y2_a3_proc_0=0.225
pi_y2_a3_proc_1=0.225
